n_res = 4;
rc = [ 0, 0, 0, 0 ];
n_tasks = 30;
d = [ 2, 10, 5, 4, 3, 7, 1, 2, 6, 1, 10, 6, 4, 8, 8, 9, 5, 2, 1, 5, 1, 6, 1, 4, 9, 5, 6, 4, 6, 2 ];
rr = [| 0, 0, 0, 0, 0, 0, 0, 0, 0, 0, 0, 0, 0, 0, 0, 0, 0, 0, 0, 0, 0, 0, 0, 0, 0, 0, 0, 0, 0, 0
      | 0, 0, 0, 0, 0, 0, 0, 0, 0, 0, 0, 0, 0, 0, 0, 0, 0, 0, 0, 0, 0, 0, 0, 0, 0, 0, 0, 0, 0, 0
      | 0, 0, 0, 0, 0, 0, 0, 0, 0, 0, 0, 0, 0, 0, 0, 0, 0, 0, 0, 0, 0, 0, 0, 0, 0, 0, 0, 0, 0, 0
      | 0, 0, 0, 0, 0, 0, 0, 0, 0, 0, 0, 0, 0, 0, 0, 0, 0, 0, 0, 0, 0, 0, 0, 0, 0, 0, 0, 0, 0, 0 |];
suc = [ { 6, 10, 15 },
       { 4, 9, 11 },
       { 7, 18, 21 },
       { 5, 14 },
       { 21, 30 },
       { 8, 22, 27 },
       { 13, 17, 24 },
       { 12, 25, 29 },
       { 16, 20 },
       { 17, 19, 21 },
       { 16, 22 },
       { 18, 30 },
       { 19, 20 },
       { 20, 26 },
       { 16 },
       { 23 },
       { 23, 27 },
       { 28 },
       { 28 },
       { 22 },
       { 23, 24 },
       { 30 },
       { 26, 29 },
       { 25, 27 },
       { 26 },
       { 28 },
       { 29 },
       {  },
       {  },
       {  } ];
